(set-logic QF_NLR)
(declare-fun y1 () Real)
(declare-fun y12 () Real)
(declare-fun y23 () Real)
(declare-fun y34 () Real)
(declare-fun y41 () Real)
(assert
(and
(and (<= 2.6181 y1) (<= y1 2.6508))(and (<= 2.0 y12) (<= y12 2.46350884418))(and (<= 2.0 y23) (<= y23 2.46350884418))(and (<= 2.0 y34) (<= y34 2.46350884418))(and (<= 2.0 y41) (<= y41 2.46350884418))(not (< (+ (* 2.0 (* 3.14159265 0.061714)) (+ (* (+ (- 0.014502) (+ 0.134266 (+ (- 0.059882) (- 0.059882)))) y1) (+ (* 2.0 (* (+ (- 0.02407) 0.02407) y12)) (+ (* 2.0 (* (+ 0.02407 (- 0.02407)) y23)) (+ (* 2.0 (* (+ (- 0.02407) (- 0.02407)) y34)) (+ (* 2.0 (* (+ (- 0.02407) (- 0.02407)) y41)) (+ 0.104941 (+ (- 0.631477) (+ 0.261947 0.261947))))))))) 0.0)))
)
(check-sat)
(exit)
